c "999890.clq"
p edge 140 544
e 1 5
e 1 6
e 1 9
e 1 11
e 1 13
e 1 22
e 1 56
e 2 5
e 2 6
e 2 9
e 2 24
e 2 30
e 2 35
e 3 5
e 3 7
e 3 8
e 3 14
e 3 18
e 3 21
e 3 41
e 3 45
e 3 73
e 3 101
e 3 111
e 3 113
e 3 114
e 4 5
e 4 6
e 4 7
e 4 10
e 4 11
e 4 15
e 4 19
e 4 20
e 4 21
e 4 23
e 4 26
e 4 33
e 4 34
e 4 66
e 4 74
e 4 85
e 4 98
e 4 125
e 5 6
e 5 7
e 5 8
e 5 10
e 5 11
e 5 12
e 5 14
e 5 15
e 5 16
e 5 18
e 5 19
e 5 23
e 5 25
e 5 26
e 5 29
e 5 31
e 5 34
e 5 37
e 5 38
e 5 40
e 5 41
e 5 42
e 5 44
e 5 48
e 5 53
e 5 59
e 5 62
e 5 66
e 5 69
e 5 71
e 5 72
e 5 76
e 5 79
e 5 82
e 5 90
e 5 95
e 5 98
e 5 106
e 5 107
e 5 110
e 5 113
e 5 116
e 5 124
e 5 136
e 5 140
e 6 7
e 6 8
e 6 9
e 6 12
e 6 13
e 6 16
e 6 20
e 6 25
e 6 27
e 6 29
e 6 30
e 6 33
e 6 36
e 6 39
e 6 40
e 6 52
e 6 53
e 6 56
e 6 58
e 6 59
e 6 74
e 6 77
e 6 83
e 6 87
e 6 97
e 6 100
e 6 102
e 6 113
e 6 125
e 6 127
e 6 138
e 7 8
e 7 12
e 7 13
e 7 26
e 7 27
e 7 28
e 7 47
e 7 49
e 7 60
e 7 62
e 7 63
e 7 68
e 7 69
e 7 75
e 7 78
e 7 80
e 7 86
e 7 91
e 7 96
e 7 99
e 7 103
e 7 107
e 7 111
e 7 124
e 7 131
e 8 9
e 8 10
e 8 12
e 8 13
e 8 15
e 8 17
e 8 22
e 8 28
e 8 31
e 8 33
e 8 34
e 8 37
e 8 40
e 8 41
e 8 43
e 8 54
e 8 58
e 8 59
e 8 79
e 8 86
e 8 89
e 8 111
e 8 121
e 8 135
e 9 10
e 9 11
e 9 14
e 9 17
e 9 22
e 9 31
e 9 76
e 9 100
e 9 106
e 9 107
e 9 131
e 10 14
e 10 19
e 10 22
e 10 32
e 10 36
e 10 39
e 10 40
e 10 42
e 10 48
e 10 53
e 10 54
e 10 58
e 10 69
e 10 85
e 10 93
e 10 109
e 10 115
e 10 119
e 10 120
e 11 17
e 11 20
e 11 24
e 11 25
e 11 27
e 11 43
e 11 50
e 11 51
e 11 63
e 11 64
e 11 66
e 11 77
e 11 82
e 11 90
e 11 103
e 11 104
e 11 114
e 11 126
e 11 133
e 11 137
e 11 139
e 12 15
e 12 21
e 12 30
e 12 49
e 12 54
e 12 65
e 12 72
e 12 73
e 12 120
e 13 16
e 13 21
e 13 35
e 13 85
e 13 102
e 13 123
e 14 16
e 14 32
e 14 46
e 14 52
e 14 71
e 14 81
e 14 105
e 15 17
e 15 18
e 15 19
e 15 24
e 15 33
e 15 35
e 15 37
e 15 38
e 15 42
e 15 51
e 15 60
e 15 61
e 15 67
e 15 70
e 15 76
e 15 83
e 15 118
e 16 23
e 16 24
e 16 38
e 16 47
e 16 109
e 16 126
e 16 129
e 17 18
e 17 20
e 17 27
e 17 29
e 17 60
e 17 94
e 17 114
e 17 116
e 18 26
e 18 28
e 18 81
e 18 123
e 18 128
e 18 134
e 19 32
e 19 42
e 19 57
e 19 61
e 19 77
e 19 97
e 19 112
e 19 121
e 19 132
e 19 137
e 20 23
e 20 31
e 20 35
e 20 39
e 20 41
e 20 49
e 20 55
e 20 57
e 20 62
e 20 63
e 20 64
e 20 68
e 20 87
e 20 93
e 20 120
e 20 124
e 20 135
e 22 25
e 22 45
e 22 46
e 22 64
e 22 99
e 22 105
e 22 123
e 23 101
e 23 135
e 24 36
e 25 36
e 25 37
e 25 43
e 25 98
e 25 106
e 25 112
e 25 115
e 25 117
e 25 118
e 26 28
e 26 38
e 26 49
e 26 65
e 26 75
e 26 104
e 26 105
e 26 107
e 26 116
e 26 129
e 26 130
e 27 47
e 27 56
e 27 73
e 27 78
e 27 84
e 27 114
e 27 117
e 28 29
e 28 30
e 28 32
e 28 44
e 28 45
e 28 61
e 28 92
e 28 124
e 29 44
e 29 45
e 29 52
e 29 57
e 29 79
e 29 89
e 29 93
e 29 96
e 29 128
e 29 130
e 30 50
e 30 51
e 30 68
e 30 70
e 30 84
e 30 86
e 30 98
e 30 110
e 30 137
e 31 52
e 31 55
e 31 62
e 31 104
e 31 133
e 32 34
e 32 46
e 32 55
e 32 60
e 32 74
e 32 94
e 32 96
e 32 140
e 33 39
e 33 63
e 33 73
e 33 84
e 34 71
e 34 108
e 35 64
e 35 84
e 35 88
e 35 91
e 35 108
e 36 58
e 36 89
e 36 101
e 36 131
e 37 51
e 37 53
e 37 123
e 38 46
e 38 56
e 38 65
e 38 80
e 38 138
e 39 44
e 39 50
e 39 54
e 40 94
e 40 109
e 40 119
e 41 43
e 41 75
e 41 91
e 41 109
e 42 48
e 42 59
e 42 81
e 42 85
e 42 139
e 43 50
e 43 67
e 43 78
e 43 95
e 43 99
e 43 102
e 43 137
e 44 47
e 44 86
e 44 104
e 44 118
e 44 127
e 44 132
e 45 48
e 45 89
e 45 92
e 45 118
e 45 125
e 45 129
e 45 130
e 46 72
e 46 79
e 46 97
e 46 139
e 48 96
e 49 88
e 49 91
e 49 116
e 50 67
e 50 68
e 50 77
e 50 81
e 50 88
e 50 100
e 50 119
e 50 127
e 50 135
e 51 55
e 51 57
e 51 74
e 51 78
e 51 92
e 51 103
e 51 122
e 52 66
e 52 101
e 53 65
e 55 70
e 56 69
e 56 80
e 56 87
e 56 97
e 57 126
e 57 128
e 59 61
e 59 134
e 61 111
e 61 128
e 62 82
e 62 90
e 62 130
e 63 67
e 64 75
e 64 80
e 64 90
e 64 103
e 64 108
e 64 132
e 65 88
e 65 115
e 66 70
e 66 71
e 68 83
e 68 134
e 69 122
e 71 72
e 71 129
e 72 76
e 72 94
e 72 110
e 72 112
e 72 131
e 73 100
e 73 121
e 74 82
e 74 119
e 75 134
e 76 95
e 77 105
e 79 83
e 79 133
e 79 139
e 81 87
e 81 102
e 82 95
e 88 92
e 88 93
e 88 106
e 88 115
e 89 121
e 90 122
e 92 112
e 92 113
e 92 120
e 93 99
e 97 132
e 99 122
e 103 108
e 103 125
e 104 117
e 105 117
e 107 138
e 108 110
e 108 136
e 112 136
e 117 140
e 120 126
e 123 140
e 126 127
e 126 136
e 127 133
e 136 138
